NAME: instance_2276
TYPE: TSP
DIMENSION: 20
EDGE_WEIGHT_TYPE: EUC_2D
NODE_COORD_SECTION
0 52.61 70.27
1 52.54 69.15
2 78.41 88.93
3 51.99 89.16
4 66.52 14.76
5 82.81 54.05
6 7.21 64.94
7 55.84 11.69
8 55.70 15.17
9 25.08 39.34
10 47.69 19.64
11 89.99 14.19
12 10.35 46.38
13 99.44 4.78
14 70.62 5.87
15 62.33 26.72
16 77.22 34.16
17 66.47 51.59
18 63.89 3.28
19 64.77 77.10
EOF
